p cnf 20 10
a 1 0
e 2 0
a 3 0
e 4 5 6 0
a 7 8 0
e 9 0
a 10 0
e 11 12 0
a 13 0
e 14 0
a 15 16 17 0
e 18 0
a 19 0
e 20 0
3 -6 16 -13 0
-13 14 19 -18 0
13 -9 -18 -3 11 0
-4 -16 12 1 6 0
-11 -14 13 -6 0
9 8 6 17 0
13 9 2 3 0
-13 -19 -15 -8 0
17 -20 16 5 0
-13 5 -19 0
